NAME: default
COMMENT : 8 locations 
COMMENT : self-defined
COMMENT : self-defined
TYPE: TSP
DIMENSION : 8
EDGE_WEIGHT_TYPE: EUC_2D
NODE_COORD_SECTION
1 1 4
2 1 2
3 0 1
4 3 4
5 4 3
6 3 2
7 5 2
8 2 0
EOF
unknown